;test regex var rgx = /^\s*(http\:\/\/)?([a-z\d\-]{1,63}\.)*[a-z\d\-]{1,255}\.[a-z]{2,6}\s*$/;
(declare-const X String)
(assert (str.in_re X (re.++ (re.++ (re.++ (str.to_re "v") (re.++ (str.to_re "a") (re.++ (str.to_re "r") (re.++ (str.to_re " ") (re.++ (str.to_re "r") (re.++ (str.to_re "g") (re.++ (str.to_re "x") (re.++ (str.to_re " ") (re.++ (str.to_re "=") (re.++ (str.to_re " ") (str.to_re "/"))))))))))) (re.++ (str.to_re "") (re.++ (re.* (re.union (str.to_re " ") (re.union (str.to_re "\u{0b}") (re.union (str.to_re "\u{0a}") (re.union (str.to_re "\u{0d}") (re.union (str.to_re "\u{09}") (str.to_re "\u{0c}"))))))) (re.++ (re.opt (re.++ (str.to_re "h") (re.++ (str.to_re "t") (re.++ (str.to_re "t") (re.++ (str.to_re "p") (re.++ (str.to_re ":") (re.++ (str.to_re "/") (str.to_re "/")))))))) (re.++ (re.* (re.++ ((_ re.loop 1 63) (re.union (re.range "a" "z") (re.union (re.range "0" "9") (str.to_re "-")))) (str.to_re "."))) (re.++ ((_ re.loop 1 255) (re.union (re.range "a" "z") (re.union (re.range "0" "9") (str.to_re "-")))) (re.++ (str.to_re ".") (re.++ ((_ re.loop 2 6) (re.range "a" "z")) (re.* (re.union (str.to_re " ") (re.union (str.to_re "\u{0b}") (re.union (str.to_re "\u{0a}") (re.union (str.to_re "\u{0d}") (re.union (str.to_re "\u{09}") (str.to_re "\u{0c}"))))))))))))))) (re.++ (str.to_re "") (re.++ (str.to_re "/") (str.to_re ";"))))))
; sanitize danger characters:  < > ' " \ / &
(assert (not (str.in_re X (re.* (re.union (str.to_re "\u{3c}") (str.to_re "\u{3e}") (str.to_re "\u{27}") (str.to_re "\u{22}") (str.to_re "\u{5c}") (str.to_re "\u{2f}") (str.to_re "\u{26}"))))))
(assert (< 50 (str.len X)))
(check-sat)
(get-model)